44 97 85 35 40 73 55 51 29 18 2 22 36 25 28 86 24 64 94 82 56 17 91 9 77 26 89 50 45 49 10 83 92 16 61 93 58 99 79 84 59 42 38 30 43 11 8 53 74 41 7 39 87 90 32 15 37 57 80 76 5 12 67 72 75 62 6 1 33 81 98 95 34 23 48 88 13 68 60 71 69 0 19 78 54 66 63 70 65 21 31 20 96 52 46 47 3 14 4 27 

